Academic license - for non-commercial use only
Gurobi Optimizer version 9.0.3 build v9.0.3rc0 (mac64)
Optimize a model with 312174 rows, 301200 columns and 1752950 nonzeros
Model fingerprint: 0xa83c6782
Variable types: 0 continuous, 301200 integer (301200 binary)
Coefficient statistics:
  Matrix range     [1e+00, 1e+00]
  Objective range  [1e+01, 5e+04]
  Bounds range     [1e+00, 1e+00]
  RHS range        [1e+00, 5e+02]
Presolve removed 5050 rows and 50 columns (presolve time = 6s) ...
Presolve added 0 rows and 4950 columns
Presolve removed 50 rows and 0 columns
Presolve time: 5.88s
Presolved: 312124 rows, 306150 columns, 1267850 nonzeros
Variable types: 0 continuous, 306150 integer (306150 binary)
Found heuristic solution: objective 670754.00000

Concurrent LP optimizer: dual simplex and barrier
Showing barrier log only...

Root barrier log...

Ordering time: 0.09s

Barrier statistics:
 Dense cols : 600
 AA' NZ     : 9.758e+05
 Factor NZ  : 6.535e+06 (roughly 300 MBytes of memory)
 Factor Ops : 3.028e+09 (less than 1 second per iteration)
 Threads    : 3

                  Objective                Residual
Iter       Primal          Dual         Primal    Dual     Compl     Time
   0   3.14196130e+08 -4.61692477e+08  4.72e+02 2.92e+01  1.65e+04    10s
   1   1.50886301e+06 -4.93062183e+08  1.45e+00 1.50e+03  5.82e+02    10s
   2   9.25662772e+05 -2.31138636e+08  4.15e-01 7.09e+02  2.61e+02    10s
   3   8.20438395e+05 -1.16830433e+08  2.23e-01 3.50e+02  1.31e+02    11s
   4   7.20477304e+05 -4.22841949e+07  4.02e-02 1.24e+02  4.71e+01    11s
   5   6.84670743e+05 -2.91495427e+06  3.53e-03 3.81e+01  3.93e+00    12s
   6   6.50190802e+05 -4.06302432e+05  2.01e-03 8.52e+00  1.15e+00    12s
   7   6.32921765e+05 -1.66323998e+05  1.66e-03 6.55e+00  8.72e-01    13s
   8   6.13806182e+05  2.12490291e+05  1.33e-03 3.00e+00  4.37e-01    13s
   9   6.00627713e+05  3.42380019e+05  1.13e-03 1.76e+00  2.81e-01    13s
  10   5.88380270e+05  3.89886104e+05  9.72e-04 1.26e+00  2.16e-01    14s
  11   5.76846714e+05  4.45641501e+05  8.22e-04 6.82e-01  1.43e-01    15s
  12   5.69688883e+05  4.67486187e+05  7.39e-04 4.41e-01  1.11e-01    15s
  13   5.60476721e+05  4.81362836e+05  6.34e-04 2.93e-01  8.60e-02    16s
  14   5.52099915e+05  4.89122465e+05  5.36e-04 2.09e-01  6.84e-02    16s
  15   5.46868514e+05  4.95408102e+05  4.76e-04 1.40e-01  5.59e-02    17s
  16   5.40193404e+05  4.98489836e+05  3.98e-04 1.05e-01  4.53e-02    17s
  17   5.33414014e+05  5.01818782e+05  3.20e-04 7.00e-02  3.43e-02    18s
  18   5.28769702e+05  5.03337071e+05  2.57e-04 5.56e-02  2.76e-02    18s
  19   5.25194406e+05  5.04689200e+05  2.14e-04 4.29e-02  2.23e-02    19s
  20   5.23105554e+05  5.05469940e+05  1.86e-04 3.58e-02  1.91e-02    19s
  21   5.20622254e+05  5.06181217e+05  1.53e-04 2.99e-02  1.57e-02    20s
  22   5.19594624e+05  5.07109269e+05  1.38e-04 2.21e-02  1.35e-02    20s
  23   5.18132125e+05  5.07509833e+05  1.20e-04 1.84e-02  1.15e-02    21s
  24   5.17179639e+05  5.07772860e+05  1.08e-04 1.62e-02  1.02e-02    21s
  25   5.15777077e+05  5.08094481e+05  8.93e-05 1.35e-02  8.33e-03    21s
  26   5.15029966e+05  5.08410293e+05  7.85e-05 1.09e-02  7.18e-03    22s
  27   5.14625717e+05  5.08691906e+05  7.30e-05 8.90e-03  6.44e-03    22s
  28   5.13780371e+05  5.08803600e+05  6.08e-05 7.95e-03  5.40e-03    23s
  29   5.13440062e+05  5.08971970e+05  5.60e-05 6.61e-03  4.85e-03    23s
  30   5.12893920e+05  5.09058270e+05  4.80e-05 6.01e-03  4.16e-03    24s
  31   5.12425988e+05  5.09156674e+05  4.11e-05 5.22e-03  3.55e-03    24s
  32   5.12122645e+05  5.09234940e+05  3.64e-05 4.55e-03  3.13e-03    25s
  33   5.11855972e+05  5.09341317e+05  3.23e-05 3.66e-03  2.73e-03    25s
  34   5.11562099e+05  5.09401883e+05  2.82e-05 3.15e-03  2.34e-03    26s
  35   5.11267754e+05  5.09478012e+05  2.38e-05 2.57e-03  1.94e-03    26s
  36   5.10989569e+05  5.09514598e+05  1.97e-05 2.26e-03  1.60e-03    26s
  37   5.10856093e+05  5.09553545e+05  1.76e-05 1.94e-03  1.41e-03    27s
  38   5.10722792e+05  5.09594291e+05  1.55e-05 1.60e-03  1.22e-03    27s
  39   5.10592404e+05  5.09633871e+05  1.35e-05 1.30e-03  1.04e-03    28s
  40   5.10428041e+05  5.09660351e+05  1.08e-05 1.09e-03  8.32e-04    28s
  41   5.10368234e+05  5.09676502e+05  9.84e-06 9.53e-04  7.50e-04    29s
  42   5.10227830e+05  5.09701446e+05  7.50e-06 7.63e-04  5.71e-04    29s
  43   5.10182419e+05  5.09715481e+05  6.72e-06 6.66e-04  5.06e-04    29s
  44   5.10140840e+05  5.09738100e+05  5.96e-06 5.08e-04  4.36e-04    30s
  45   5.10068472e+05  5.09751371e+05  4.70e-06 4.07e-04  3.44e-04    30s
  46   5.10022231e+05  5.09762608e+05  3.95e-06 3.24e-04  2.81e-04    31s
  47   5.10014271e+05  5.09771357e+05  3.80e-06 2.65e-04  2.63e-04    31s
  48   5.09966460e+05  5.09777674e+05  3.00e-06 2.18e-04  2.04e-04    32s
  49   5.09935876e+05  5.09784001e+05  2.43e-06 1.74e-04  1.65e-04    32s
  50   5.09905713e+05  5.09791592e+05  1.90e-06 1.28e-04  1.24e-04    32s
  51   5.09895873e+05  5.09795111e+05  1.72e-06 1.06e-04  1.09e-04    33s
  52   5.09874832e+05  5.09797259e+05  1.33e-06 9.11e-05  8.40e-05    33s
  53   5.09859662e+05  5.09800603e+05  1.02e-06 6.69e-05  6.39e-05    34s
  54   5.09845003e+05  5.09802764e+05  7.45e-07 5.07e-05  4.57e-05    34s
  55   5.09836613e+05  5.09804114e+05  5.62e-07 4.08e-05  3.52e-05    34s
  56   5.09835092e+05  5.09804583e+05  5.34e-07 3.77e-05  3.30e-05    35s
  57   5.09831291e+05  5.09805471e+05  4.51e-07 3.13e-05  2.80e-05    35s
  58   5.09825794e+05  5.09806412e+05  3.33e-07 2.46e-05  2.10e-05    35s
  59   5.09821054e+05  5.09807899e+05  2.30e-07 1.40e-05  1.42e-05    36s
  60   5.09817905e+05  5.09808612e+05  1.69e-07 9.70e-06  1.01e-05    36s
  61   5.09815069e+05  5.09809088e+05  1.05e-07 6.39e-06  6.47e-06    37s
  62   5.09813446e+05  5.09809489e+05  6.95e-08 4.05e-06  4.28e-06    37s
  63   5.09812073e+05  5.09809836e+05  3.93e-08 1.90e-06  2.42e-06    37s
  64   5.09811432e+05  5.09809979e+05  2.55e-08 1.15e-06  1.57e-06    38s
  65   5.09811223e+05  5.09810081e+05  2.11e-08 6.07e-07  1.24e-06    38s
  66   5.09811034e+05  5.09810112e+05  1.71e-08 4.19e-07  9.98e-07    38s
  67   5.09810669e+05  5.09810152e+05  9.26e-09 1.76e-07  5.60e-07    38s
  68   5.09810221e+05  5.09810196e+05  3.43e-10 1.20e-07  2.81e-08    39s
  69   5.09810220e+05  5.09810196e+05  1.41e-08 1.07e-07  2.56e-08    39s
  70   5.09810220e+05  5.09810196e+05  2.11e-08 1.07e-07  2.55e-08    39s
  71   5.09810220e+05  5.09810196e+05  2.11e-08 1.07e-07  2.55e-08    40s

Barrier solved model in 71 iterations and 39.74 seconds
Optimal objective 5.09810220e+05


Root crossover log...

  121103 DPushes remaining with DInf 0.0000000e+00                40s
       0 DPushes remaining with DInf 0.0000000e+00                41s

    2173 PPushes remaining with PInf 5.3355350e-05                41s
       0 PPushes remaining with PInf 0.0000000e+00                42s

  Push phase complete: Pinf 0.0000000e+00, Dinf 4.8754927e-01     42s


Root simplex log...

Iteration    Objective       Primal Inf.    Dual Inf.      Time
   20195    5.0981020e+05   0.000000e+00   4.875493e-01     42s
   20198    5.0981020e+05   0.000000e+00   0.000000e+00     42s

Solved with barrier

Root relaxation: objective 5.098102e+05, 20198 iterations, 33.77 seconds
Total elapsed time = 45.90s

    Nodes    |    Current Node    |     Objective Bounds      |     Work
 Expl Unexpl |  Obj  Depth IntInf | Incumbent    BestBd   Gap | It/Node Time

     0     0 509810.200    0 22451 670754.000 509810.200  24.0%     -   47s
H    0     0                    551806.00000 509810.200  7.61%     -   83s
     0     0 509810.200    0 22451 551806.000 509810.200  7.61%     -  104s
     0     2 509810.200    0 22451 551806.000 509810.200  7.61%     -  139s
     1     4 510133.471    1 22685 551806.000 509810.470  7.61% 43421  282s

Explored 3 nodes (93277 simplex iterations) in 300.19 seconds
Thread count was 8 (of 8 available processors)

Solution count 2: 551806 670754 

Time limit reached
Best objective 5.518060000000e+05, best bound 5.100320981148e+05, gap 7.5704%

User-callback calls 9318, time in user-callback 0.10 sec
Solution written to /Users/mdeboute/Desktop/Etudes/Master/M2/S9/GOPP/Projet/multi-period-flp/solution/instMulti_I50_J500_T12_0_result.txt
